$ Mobility Database for Ni-Al-Cr-Co-Hf-Mo-Nb-Re-Ta-Ti-W
$ Ni-Al-Cr terms taken from A. Engstrom and J. Agren, 
$       Z. Metallkd., vol 87 (1996) p.92.
$Ni-Al-Ti, Ni-Mo, Ni-Nb Assessment re-evaluated using data from 
$ Reed and co-workers  6/08.
$ 8/08  Ni-Mo Ni-Nb and Ni-Ti-Al parameters are re-assessed using Ni17
$
$ Nb preliminary assessment added 6/01
$ Fe added 4/02  preliminary assessment based on B. Jonnsson for Fe-Ni-Cr 
$     Z. Metallkd. 86 (1995) 686.
$    completed preliminary assessment of Fe-Co and Fe-Al
$    Revised Fe-Al assessment 10/02
$ 1/03  Added C based on Jonsson C-Cr-Fe-Ni assessment Z. Metallkde. (85) 
$       1994 p.502.   HAVE NOT ADDED CARBON to LIQUID PHASE
$  
$ Mobility in BCC phase not assessed 
$
$ Current database only valid for Ni-rich alloys.

$ C. Campbell  
$
$ NIST/Metallurgy Division Gaithersburg, MD 20899
$ NIST assumes no responsibility whatsoever for the use of the programs and
$ databases by other parties, and makes no guarantees,
$ expressed or implied, about their quality, reliability, or any other
$ characteristic. We would appreciate acknowledgement if the database is used.
$
$ Addition of Pt and Pd  made in June 2010
$ Addition of Pd is prelimniarly using estimated parameters.
$
$  7/14/2010
$  Database file reformatted to be compitable with the TCNi1 and other like
$  database when considering diffusion in the fcc disorder phase, but not 
$  in the ordered phases (B2 and gamma prime)
$  format being followed is that established by Anders Engstrom 6.2010 
$
$  Order L12 and B2 descriptions added for Ni, Al, and Cr

$  7/15/2010  Dummy parameters added for Pt and Pd in L12
$   Assumed Pt and Pd are like Ni in Ni3Al (FCC_L12, gamma-prime)
$
$



 ELEMENT VA   VACUUM                    0.0000E+00  0.0000E+00  0.0000E+00!
 ELEMENT AL   FCC_A1                    2.6982E+01  4.5773E+03  2.8321E+01!
 ELEMENT C    GRAPHITE                  1.2011E+01  1.0540E+03  5.7400E+00! 
 ELEMENT NI   FCC_A1                    5.8690E+01  4.7870E+03  2.9796E+01!
 ELEMENT CR   BCC_A2			5.1996E+01  4.0400E+03  2.3560E+01!
 ELEMENT TA   BCC_A2			1.8095E+02  5.6819E+03  4.1472E+01 !
 ELEMENT CO   HCP_A3			5.8933E+01  4.7656E+03  3.0040E+01 !
 ELEMENT MO   BCC_A2			9.5940E+01  4.5890E+03  2.8560E+01 !	
 ELEMENT W    BCC_A2			1.8385E+02  4.9700E+03  3.2620E+01 ! 
 ELEMENT RE   HCP_A3			1.8621E+02  5.3555E+03  3.6526E+01 !
 ELEMENT HF   HCP_A3			1.7849E+02  0.0000E+00  0.0000E+00 !	
 ELEMENT TI   HCP_A3                    4.7880E+01  4.8100E+03  3.0648E+01 ! 
 ELEMENT NB   BCC_A2			9.2906E+01  5.2200E+03  3.6270E+01 !
 ELEMENT FE   BCC_A2			5.5847E+01  4.4890E+03  2.7280E+01 !
 ELEMENT PT   FCC_A1			1.9508E+02  5.7237E+03  4.1631E+01 !
 ELEMENT PD   FCC_A1		 	1.0642E+02  5.4685E+03  3.7823E+01 !

 TYPE_DEFINITION % SEQ *!
 DEFINE_SYSTEM_DEFAULT SPECIE 2 !
 DEFAULT_COMMAND DEF_SYS_ELEMENT VA !
 

 DATABASE_INFO  NIST-NiMob database is for Ni-rich fcc alloys.  
    Last update 2010. Please send questions/comments to cecamp@nist.gov.
 
 
 !

 PHASE LIQUID:L %  1  1.0  !
    CONSTITUENT LIQUID:L :AL,C,NI,CR,TA,CO,RE,HF,TI,NB,FE, PT,PD,MO,W :  !

$
 TYPE_DEFINITION 1 TDB RESTORE_PHASE FCC_A1,,,!
 PHASE FCC_L12  %1  3 .75  .25   1 !
$> This phase has some contribution from FCC_A1. !
 CONST FCC_L12  :AL,CR,NI,TA,CO,RE,HF,TI,NB,FE, PT,PD,MO,W  :
                 AL,CR,NI,TA,CO,RE,HF,TI,NB,FE, PT,PD,MO,W  : 
                   C, VA :  !
 PHASE FCC_A1  %  2 1   1 !
$> If FCC_L12 is defined, this phase will be combined to it.!
 CONST FCC_A1  :AL,CR,NI%,TA,CO,RE,HF,TI,NB,FE, PT,PD,MO,W : 
                    C,VA :  !
$
 TYPE_DEFINITION 2 TDB RESTORE_PHASE BCC_A2,,,!
 PHASE BCC_B2  %2  3 .5 .5 3 !
$> This phase has some contribution from BCC_A2. !
 CONST BCC_B2  :AL,CR,NI%,TA,CO,RE,HF,TI,NB,FE, PT,PD,MO,W,VA :
                AL%,CR,NI,TA,CO,RE,HF,TI,NB,FE, PT,PD,MO,W,VA : 
                       C,VA%: !
 PHASE BCC_A2  %W  2 1   3 !
$> If BCC_B2 is defined, this phase will be combined to it.!
 CONST BCC_A2  :AL%,CR%,NI%,TA,CO,RE,HF,TI,NB,FE, PT,PD,MO,W,VA : 
                       C,VA% :  !

 TYPE_DEFINITION A GES A_P_D @ MAGNETIC  -3.0 .28 !
 TYPE_DEFINITION B GES A_P_D @ MAGNETIC  -1.0 .40 !

 TYPE_DEFINITION F GES A_P_D BCC_B2 DIS_PART BCC_A2 !

 TYPE_DEFINITION G GES A_P_D FCC_L12 DIS_PART FCC_A1 !

 TYPE_DEFINITION G GES A_P_D FCC_L12 C_S 2 NI:AL:VA !
 TYPE_DEFINITION G GES A_P_D FCC_L12 MAJ 1 NI:NI:VA !

 TYPE_DEFINITION G GES A_P_D FCC_L12 DEFAULT_STABLE 1 !
 TYPE_DEFINITION G GES A_P_D FCC_L12 DEFAULT_STABLE 2 !

$MAJOR CONSTITUENTS FOR THE A2 PHASE (DISORDERED BCC_B2)
 TYPE_DEFINITION W 
      GES A_P_D BCC_B2 MAJ 1 AL,CR,NI,TA,CO,RE,HF,TI,NB,FE, PT,PD,MO,W :
                             AL,CR,NI,TA,CO,RE,HF,TI,NB,FE, PT,PD,MO,W : 
				VA !
$MAJOR CONSTITUENTS FOR THE B2 PHASE (ORDERED BCC_B2)
 TYPE_DEFINITION W 
      GES A_P_D BCC_B2 C_S 2 NI : AL : VA !





$$$$ Volume Data $$$$$$$$$$$$$$$$$$$$$$$$$$4

$
$
ZEROVOLUME_ELEMENT C VA !
$
$
PARAMETER VS(LIQUID)  298.15 1.0e-5; 6.000E+3 N !
PARAMETER VS(FCC_A1)  298.15 1.0e-5; 6.000E+3 N !
PARAMETER VS(FCC_L12) 298.15 1.0e-5; 6.000E+3 N !
PARAMETER VS(BCC_A2)  298.15 1.0e-5; 6.000E+3 N !
PARAMETER VS(BCC_B2)  298.15 1.0e-5; 6.000E+3 N !
$
$
$==============
$
$
DIFFUSION MAGNETIC FCC_A1  ALPHA=0.3 !
DIFFUSION MAGNETIC FCC_L12 ALPHA=0.3 !
DIFFUSION MAGNETIC BCC_A2  ALPHA=0.3 !
DIFFUSION MAGNETIC BCC_B2  ALPHA=0.3 !
$
DIFFUSION ORDERED  FCC_L12 DISORDER_PHASE FCC_A1 !
DIFFUSION ORDERED  BCC_B2  DISORDER_PHASE BCC_A2 !


$$$$$$  Mobility of Al $$$$$$$$$$$$ 

  PARAMETER MQ(FCC_A1&AL,*:*;0) 298.15 -284000+R*T*LN(7.5e-4); 6.00E+3 N !
  PARAMETER MQ(FCC_A1&AL,AL:VA;0) 298.15 -142000+R*T*LN(1.71e-4); 6.00E+3 N 
	REF200 !
  PARAMETER MQ(FCC_A1&Al,CR:VA;0) 298.15 -235000-82*T; 6.000E+3 N REF200 ! 
  PARAMETER MQ(FCC_A1&Al,CO:VA;0) 298.15 -284000+R*T*LN(7.5e-4);  6.000E+3 N !  
  PARAMETER MQ(FCC_A1&AL,FE:VA;0) 298.15 -286000+R*T*LN(7.0e-5); 6.00E+3 N
      REF260 ! 
  PARAMETER MQ(FCC_A1&AL,HF:VA;0) 298.15 -284000+R*T*LN(7.5e-4); 6.000E+3 N ! 
  PARAMETER MQ(FCC_A1&AL,MO:VA;0) 298.15 -284000+R*T*LN(7.5e-4);  6.000E+3 N ! 
  PARAMETER MQ(FCC_A1&Al,NB:VA;0) 298.15 -284000+R*T*LN(7.5e-4); 6.000E+3 N !
  PARAMETER MQ(FCC_A1&AL,NI:VA;0) 298.15 -284000+R*T*LN(7.5e-4); 6.00E+3 N 
	REF220 !
  PARAMETer MQ(FCC_A1&AL,PT:VA;0) 298.15 -350108.6-33.18*T; 6.00E+3 N 
	REF220 !
  PARAMETER MQ(FCC_A1&AL,RE:VA;0) 298.15 -284000+R*T*LN(7.5e-4); 6.000E+3 N ! 
  PARAMETER MQ(FCC_A1&Al,TA:VA;0) 298.15 -284000+R*T*LN(7.5e-4); 6.000E+3 N !
  PARAMETER MQ(FCC_A1&Al,TI:VA;0) 298.15 -515852+R*T*LN(0.5); 6.000E+3 N 
	REF280 !
  PARAMETER MQ(FCC_A1&AL,W:VA;0)  298.15 -284000+R*T*LN(7.5e-4); 6.000E+3 N ! 



  PARAMETER MQ(FCC_A1&AL,AL:C;0) 298.15 -142000+R*T*LN(1.71e-4); 6.00E+3 N
        REF200 !
  PARAMETER MQ(FCC_A1&Al,CR:C;0) 298.15 -235000-82*T; 6.000E+3 N REF200 !
  PARAMETER MQ(FCC_A1&Al,CO:C;0) 298.15 -284000+R*T*LN(7.5e-4);  6.000E+3 N !
  PARAMETER MQ(FCC_A1&AL,FE:C;0) 298.15 -286000+R*T*LN(7.0e-5) ; 6.00E+3 N
      REF260 !
  PARAMETER MQ(FCC_A1&AL,HF:C;0) 298.15 -284000+R*T*LN(7.5e-4); 6.000E+3 N !
  PARAMETER MQ(FCC_A1&AL,MO:C;0) 298.15 -284000+R*T*LN(7.5e-4);  6.000E+3 N !
  PARAMETER MQ(FCC_A1&Al,NB:C;0) 298.15 -284000+R*T*LN(7.5e-4); 6.000E+3 N !
  PARAMETER MQ(FCC_A1&AL,NI:C;0) 298.15 -284000+R*T*LN(7.5e-4); 6.00E+3 N
        REF220 !
  PARAMETer MQ(FCC_A1&AL,PT:C;0) 298.15 -350108.6-33.18*T; 6.00E+3 N 
	REF220 !
  PARAMETER MQ(FCC_A1&AL,RE:C;0) 298.15 -284000+R*T*LN(7.5e-4); 6.000E+3 N !
  PARAMETER MQ(FCC_A1&Al,TA:C;0) 298.15 -284000+R*T*LN(7.5e-4); 6.000E+3 N !
  PARAMETER MQ(FCC_A1&Al,TI:C;0) 298.15 -515852+R*T*LN(0.5); 6.000E+3 N
        REF280 !
  PARAMETER MQ(FCC_A1&AL,W:C;0) 298.15 -284000+R*T*LN(7.5E-4); 6.000E+3 N !

  PARAMETER MQ(FCC_A1&AL,AL:B;0) 298.15 -142000+R*T*LN(1.71e-4); 6.00E+3 N
        REF200 !
  PARAMETER MQ(FCC_A1&Al,CR:B;0) 298.15 -235000-82*T; 6.000E+3 N REF200 !
  PARAMETER MQ(FCC_A1&Al,CO:B;0) 298.15 -284000+R*T*LN(7.5e-4);  6.000E+3 N !
  PARAMETER MQ(FCC_A1&AL,FE:B;0) 298.15 -286000+R*T*LN(7.0e-5) ; 6.00E+3 N
      REF260 !
  PARAMETER MQ(FCC_A1&AL,HF:B;0) 298.15 -284000+R*T*LN(7.5e-4); 6.000E+3 N !
  PARAMETER MQ(FCC_A1&AL,MO:B;0) 298.15 -284000+R*T*LN(7.5e-4);  6.000E+3 N !
  PARAMETER MQ(FCC_A1&Al,NB:B;0) 298.15 -284000+R*T*LN(7.5e-4); 6.000E+3 N !
  PARAMETER MQ(FCC_A1&AL,NI:B;0) 298.15 -284000+R*T*LN(7.5e-4); 6.00E+3 N
        REF220 !
  PARAMETer MQ(FCC_A1&AL,PT:B;0) 298.15 -350108.6-33.18*T; 6.00E+3 N 
	REF220 !
  PARAMETER MQ(FCC_A1&AL,RE:B;0) 298.15 -284000+R*T*LN(7.5e-4); 6.000E+3 N !
  PARAMETER MQ(FCC_A1&Al,TA:B;0) 298.15 -284000+R*T*LN(7.5e-4); 6.000E+3 N !
  PARAMETER MQ(FCC_A1&Al,TI:B;0) 298.15 -515852+R*T*LN(0.5); 6.000E+3 N
        REF280 !
  PARAMETER MQ(FCC_A1&AL,W:B;0) 298.15 -284000+R*T*LN(7.5E-4); 6.000E+3 N !



$$ Al-Cr $$

   PARAMETER MQ(FCC_A1&Al,AL,CR:VA;0) 298.15 335000; 6.000e+3 N REF200 ! 

   PARAMETER MQ(FCC_A1&Al,AL,CR:C;0) 298.15 335000; 6.000e+3 N REF200 !


$$ Al-Ni $$

   PARAMETER MQ(FCC_A1&AL,AL,NI:VA;0) 298.15 -41300-91.2*T; 
   	  6.000E+3 N REF200 !
 
   PARAMETER MQ(FCC_A1&AL,AL,NI:C;0) 298.15 -41300-91.2*T; 6.000E+3 N REF200 !

$$  Cr-Ni $$

  PARAMETER MQ(FCC_A1&Al,CR,NI:VA;0) 298.15 -53200; 6.00e+3 N  REF200 !
  PARAMETER MQ(FCC_A1&AL,CR,NI:C;0) 298.15 -53200; 6.00E+3 N REF200 !

$$ Al-Ti
   PARAMETER MQ(FCC_A1&AL,Al,TI:VA;0) 298.15 -40896+86.1*T; 6.00E+3 N  REF280 !
   PARAMETER MQ(FCC_A1&AL,Al,TI:C;0) 298.15 -40896+86.1*T; 6.00E+3 N  REF280 !

$$ Ni-Ti
   PARAMETER MQ(FCC_A1&AL,NI,TI:VA;0) 298.15 116464-80.1*T; 6.00E+3 N REF280 !
   PARAMETER MQ(FCC_A1&AL,NI,TI:C;0) 298.15 116464-80.1*T; 6.00E+3 N REF280 !



$$$$ Mobility of C $$$$$$$$$$$$$$$$$$$$$$$$$$$$$$$$$$$$$$$$$$$$$$$ 
  
  PARAMETER MQ(FCC_A1&C,*:*;0) 298.15 -154700+31*T; 6.00E+3 N REF270 !
  PARAMETER MQ(FCC_A1&C,AL:C;0) 298.15 -154700+31*T; 6.00E+3 N REF270 ! 
  PARAMETER MQ(FCC_A1&C,CO:C;0) 298.15 -154700+31*T; 6.00E+3 N REF270 !  
  PARAMETER MQ(FCC_A1&C,CR:C;0) 298.15 -2.0E+6;  6.00E+3 N REF270  !
  PARAMETER MQ(FCC_A1&C,HF:C;0) 298.15 -2.0E+6;  6.00E+3 N REF270  ! 
    PARAMETER MQ(FCC_A1&C,FE:C;0) 298.15 +72007-16.008*T+R*T*LN(4.529e-7);
	6.000E+3 N REF270 !
  PARAMETER MQ(FCC_A1&C,MO:C;0) 298.15 -2.0E+6;  6.00E+3 N REF270  !
  PARAMETER MQ(FCC_A1&C,NB:C;0) 298.15 -2.0E+6;  6.00E+3 N REF270  ! 
    PARAMETER MQ(FCC_A1&C,NI:C;0) 298.15 -154700+31*T; 6.00E+3 N REF270 !      
  PARAMETER MQ(FCC_A1&C,RE:C;0) 298.15 -2.0E+6;  6.00E+3 N REF270  ! 
  PARAMETER MQ(FCC_A1&C,TA:C;0) 298.15 -2.0E+6;  6.00E+3 N REF270  ! 
  PARAMETER MQ(FCC_A1&C,TI:C;0) 298.15 -154700+31*T; 6.00E+3 N REF270 !
  PARAMETER MQ(FCC_A1&C,W:C;0) 298.15 -2.0E+6;  6.00E+3 N REF270  !


  PARAMETER MQ(FCC_A1&C,CO:VA;0) 298.15 -154700-81.7*T; 6.00E+3 N  REF270 ! 
  PARAMETER MQ(FCC_A1&C,CR:VA;0) 298.15 -150000-90*T;  6.00E+3 N REF270  !
  PARAMETER MQ(FCC_A1&C,HF:VA;0) 298.15  -150000-90*T;  6.00E+3 N REF270  !
  PARAMETER MQ(FCC_A1&C,FE:VA;0) 298.15 -147723+32.809*T+R*T*LN(4.529E-7);
        6.000E+3 N REF270 !
  PARAMETER MQ(FCC_A1&C,MO:VA;0) 298.15  -150000-90*T;  6.00E+3 N REF270  !
  PARAMETER MQ(FCC_A1&C,NB:VA;0) 298.15  -150000-90*T;  6.00E+3 N REF270  !
  PARAMETER MQ(FCC_A1&C,NI:VA;0) 298.15 -154700-81.7*T; 6.00E+3 N  REF270 !
  PARAMETER MQ(FCC_A1&C,RE:VA;0) 298.15  -150000-90*T;  6.00E+3 N REF270  !
  PARAMETER MQ(FCC_A1&C,TA:VA;0) 298.15 -150000-90*T;  6.00E+3 N REF270  !
  PARAMETER MQ(FCC_A1&C,TI:VA;0) 298.15 -154700-81.7*T; 6.00E+3 N  REF270 !
  PARAMETER MQ(FCC_A1&C,W:VA;0) 298.15  -150000-90*T;  6.00E+3 N REF270  !

    PARAMETER MQ(FCC_A1&C,CR,FE:C;0) 298.15 -240000+170*T; 6.00E+3 N REF270 ! 
    PARAMETER MQ(FCC_A1&C,CR.NI:C;0) 298.15 -74000; 6.000E+3 N REF270 !
    PARAMETER MQ(FCC_A1&C,FE,NI:C;0) 298.15 +5000; 6.000E+3 N REF270 !
    PARAMETER MQ(FCC_A1&C,FE,NI:C;1) 298.15 +15000; 6.000E+3 N REF270 !



    PARAMETER MQ(FCC_A1&C,CR,FE:VA;0) 298.15 -240000+170*T; 6.00E+3 N REF270 !
    PARAMETER MQ(FCC_A1&C,CR.NI:VA;0) 298.15 -74000; 6.000E+3 N REF270 !
    PARAMETER MQ(FCC_A1&C,FE,NI:VA;0) 298.15 +5000; 6.000E+3 N REF270 !
    PARAMETER MQ(FCC_A1&C,FE,NI:VA;1) 298.15 +15000; 6.000E+3 N REF270 !



$$$$$$$$ Mobility of Co $$$$$$$$$$$$$$$$$$$$$$$$$$$$$$$$$

  PARAMETER MQ(FCC_A1&CO,*:*;0) 298.15 -284169-67.65*T; 6.00E+3 N REF250 !

  PARAMETER MQ(FCC_A1&CO,AL:VA;0) 298.15 -261700+R*T*LN(0.64); 6.000E+3 N !

$$  Assume Co diffuses in Al as it does in CR  $$
  
  PARAMETER MQ(FCC_A1&CO,CO:VA;0) 298.15 -286175-75.98*T; 6.00E+3 N REF250 !
  PARAMETER MQ(FCC_A1&CO,CR:VA;0) 298.15 -284169-67.65*T; 6.000E+3 N !
  PARAMETER MQ(FCC_A1&CO,HF:VA;0) 298.15 -284169-67.65*T; 6.000E+3 N !
  PARAMETER MQ(FCC_A1&CO,FE:VA;0) 298.15 -2.881E+5+R*T*LN(7.027E-5); 6.000E+3 
      N REF260  !
  PARAMETER MQ(FCC_A1&CO,MO:VA;0) 298.15 -284169-67.65*T; 6.000E+3 N !
  PARAMETER MQ(FCC_A1&CO,NB:VA;0) 298.15 -284169-67.65*T; 6.000E+3 N !
  PARAMETER MQ(FCC_A1&CO,NI:VA;0) 298.15 -284169-67.65*T; 6.00E+3 N REF250 !
  PARAMETER MQ(FCC_A1&CO,PD:VA;0) 298.15 -258375-91.37*T; 6.00E+3 N REF300 !
  PARAMETER MQ(FCC_A1&CO,PT:VA;0) 298.15 -262032-91.78*T; 6.00E+3 N REF300 !
  PARAMETER MQ(FCC_A1&Co,RE:VA;0) 298.15 -284169-67.65*T; 6.00E+3 N !
  PARAMETER MQ(FCC_A1&CO,TA:VA;0) 298.15 -284169-67.65*T; 6.00E+3 N !
  PARAMETER MQ(FCC_A1&CO,TI:VA;0) 298.15 -284169-67.65*T; 6.00E+3 N !
  PARAMETER MQ(FCC_A1&CO,W:VA;0)  298.15 -284169-67.65*T; 6.00E+3 N !



  PARAMETER MQ(FCC_A1&CO,AL:C;0) 298.15 -261700+R*T*LN(0.64); 6.00E+3 N !
  PARAMETER MQ(FCC_A1&CO,CO:C;0) 298.15 -286175-75.98*T; 6.00E+3 N REF250 !
  PARAMETER MQ(FCC_A1&CO,CR:C;0) 298.15 -284169-67.65*T; 6.000E+3 N !
  PARAMETER MQ(FCC_A1&CO,HF:C;0) 298.15 -284169-67.65*T; 6.000E+3 N !
  PARAMETER MQ(FCC_A1&CO,FE:C;0) 298.15 -2.881E+5+R*T*LN(7.027E-5); 6.000E+3
      N REF260  !
  PARAMETER MQ(FCC_A1&CO,MO:C;0) 298.15 -284169-67.65*T; 6.000E+3 N !
  PARAMETER MQ(FCC_A1&CO,NB:C;0) 298.15 -284169-67.65*T; 6.000E+3 N !
  PARAMETER MQ(FCC_A1&CO,NI:C;0) 298.15 -284169-67.65*T; 6.00E+3 N REF250 !
  PARAMETER MQ(FCC_A1&CO,PT:C;0) 298.15 -262032-91.78*T; 6.00E+3 N REF300 !
  PARAMETER MQ(FCC_A1&Co,RE:C;0) 298.15 -284169-67.65*T; 6.00E+3 N !
  PARAMETER MQ(FCC_A1&CO,TA:C;0) 298.15 -284169-67.65*T; 6.00E+3 N !
  PARAMETER MQ(FCC_A1&CO,TI:C;0) 298.15 -284169-67.65*T; 6.00E+3 N !
  PARAMETER MQ(FCC_A1&CO,W:C;0)  298.15 -284169-67.65*T; 6.00E+3 N !



  PARAMETER MQ(FCC_A1&CO,CO,NI:VA;0) 298.15 10787-11.5*T; 6.000E+3 N REF250 !
  PARAMETER MQ(FCC_A1&CO,CO,FE:VA;0) 298.15 1.208E+5-97.61*T; 6.00E+3 
	N REF260 !
  PARAMETER MQ(FCC_A1&CO,CO,PD:VA;0) 298.15 269685-70.46*T; 6.000E+3 
	N REF300 !
  PARAMETER MQ(FCC_A1&CO,CO,PT:VA;1) 298.15 +97350.42; 6.000E+3 N REF300 !

  PARAMETER MQ(FCC_A1&CO,CO,NI:C;0) 298.15 10787-11.5*T; 
  	6.000E+3 N REF250 !
  PARAMETER MQ(FCC_A1&CO,CO,FE:C;0) 298.15 1.208E+5-97.61*T; 
	6.00E+3 N REF260 !
  


$$$$$ Mobility of Cr $$$$$$$$$$$$
 PARAMETER MQ(FCC_A1&CR,*:*;0) 298.15 -287000-64.4*T; 6.000E+3 N !

 PARAMETER MQ(FCC_A1&CR,Al:VA;0) 298.15 -261700+R*T*LN(0.64); 6.00E+3 N 
    REF200 ! 

 PARAMETER MQ(FCC_A1&CR,CR:VA;0) 298.15 -235000-82*T; 6.00E+3 N  REF220 ! 
 PARAMETER MQ(FCC_A1&CR,CO:VA;0) 298.15 -246904+R*T*LN(1.8083E-6);
	6.00E+3 N REF250 ! 
 PARAMETER MQ(FCC_A1&CR,FE:VA;0) 298.15 -286000-71.9*T; 6.000E+3 N REF230 ! 
 PARAMETER MQ(FCC_A1&CR,HF:VA;0) 298.15 -287000-64.4*T; 6.000E+3 N !
 PARAMETER MQ(FCC_A1&Cr,MO:VA;0) 298.15 -287000-64.4*T;  6.000E+3 N !
 PARAMETER MQ(FCC_A1&CR,NB:VA;0) 298.15 -287000-64.4*T; 6.000E+3 N !
 PARAMETER MQ(FCC_A1&CR,NI:VA;0) 298.15 -287000-64.4*T; 6.00E+3 N REF220 !
 PARAMETER MQ(FCC_A1&CR,PD:VA;0) 298.15 -258375-91.37*T; 6.00E+3 N REF300 !
 PARAMETER MQ(FCC_A1&CR,PT:VA;0) 298.15 -262032-91.78*T; 6.00E+3 N REF300 !
 PARAMETER MQ(FCC_A1&CR,RE:VA;0) 298.15 -287000-64.4*T; 6.000E+3 N ! 
 PARAMETER MQ(FCC_A1&CR,TA:VA;0) 298.15 -287000-64.4*T; 6.000E+3 N !
 PARAMETER MQ(FCC_A1&CR,TI:VA;0) 298.15 -287000-64.4*T;  6.000E+3 N !
 PARAMETER MQ(FCC_A1&CR,W:VA;0)  298.15 -287000-64.4*T; 6.000E+3 N !


 PARAMETER MQ(FCC_A1&CR,Al:C;0) 298.15 -261700+R*T*LN(0.64); 6.00E+3 N
    REF200 !

 PARAMETER MQ(FCC_A1&CR,CR:C;0) 298.15 -235000-82*T; 6.00E+3 N  REF220 !
 PARAMETER MQ(FCC_A1&CR,CO:C;0) 298.15 -246904+R*T*LN(1.8083E-6);
	6.00E+3 N REF250 !
 PARAMETER MQ(FCC_A1&CR,FE:C;0) 298.15 -286000-71.9*T; 6.000E+3 N REF230 !
 PARAMETER MQ(FCC_A1&CR,HF:C;0) 298.15 -287000-64.4*T; 6.000E+3 N !
 PARAMETER MQ(FCC_A1&Cr,MO:C;0) 298.15 -287000-64.4*T;  6.000E+3 N !
 PARAMETER MQ(FCC_A1&CR,NB:C;0) 298.15 -287000-64.4*T; 6.000E+3 N !
 PARAMETER MQ(FCC_A1&CR,NI:C;0) 298.15 -287000-64.4*T; 6.00E+3 N REF220 !
 PARAMETER MQ(FCC_A1&CR,RE:C;0) 298.15 -287000-64.4*T; 6.000E+3 N !
 PARAMETER MQ(FCC_A1&CR,TA:C;0) 298.15 -287000-64.4*T; 6.000E+3 N !
 PARAMETER MQ(FCC_A1&CR,TI:C;0) 298.15 -287000-64.4*T;  6.000E+3 N !
 PARAMETER MQ(FCC_A1&CR,W:C;0)  298.15 -287000-64.4*T; 6.000E+3 N !




$$ Al-Cr $$

   PARAMETER MQ(FCC_A1&CR,Al,CR:VA;0) 298.15 +487000; 6.00E+3 N REF200 !
   PARAMETER MQ(FCC_A1&CR,Al,CR:C;0) 298.15 +487000; 6.00E+3 N REF200 !


$$ Al-Ni $$

   PARAMETER MQ(FCC_A1&CR,Al,NI:VA;0) 298.15 -118000; 6.00E+3 N REF200 !
   PARAMETER MQ(FCC_A1&CR,Al,NI:C;0) 298.15 -118000; 6.00E+3 N REF200 !


$$ Cr-Ni $$

  PARAMETER MQ(FCC_A1&CR,CR,NI:VA;0) 298.15 -68000; 6.00E+3 N REF220!
  PARAMETER MQ(FCC_A1&CR,CR,NI:C;0) 298.15 -68000; 6.00E+3 N REF220!


$$ Cr-Fe $$

  PARAMETER MQ(FCC_A1&CR,Cr,FE:VA;0) 298.15 -105000; 6.000E+3 N REF230 !
  PARAMETER MQ(FCC_A1&CR,Cr,FE:C;0) 298.15 -105000; 6.000E+3 N REF230 !



$$ Fe-Ni $$ 
 
  PARAMETER MQ(FCC_A1&CR,Fe,NI:VA;0) 298.15 +16100; 6.000E+3 N  REF230 !
  PARAMETER MQ(FCC_A1&CR,Fe,NI:C;0) 298.15 +16100; 6.000E+3 N  REF230 !


$$$ Cr-Fe-Ni $$$

  PARAMETER MQ(FCC_A1&CR,CR,FE,NI:VA;0) 298.15 +310000; 6.000E+3 N  REF230 !
  PARAMETER MQ(FCC_A1&CR,CR,FE,NI:VA;1) 298.15 +320000; 6.000E+3 N  REF230 !
  PARAMETER MQ(FCC_A1&Cr,CR,FE,NI:VA;2) 298.15 +120000; 6.000E+3 N  REF230 !

  PARAMETER MQ(FCC_A1&CR,CR,FE,NI:C;0) 298.15 +310000; 6.000E+3 N  REF230 !
  PARAMETER MQ(FCC_A1&CR,CR,FE,NI:C;1) 298.15 +320000; 6.000E+3 N  REF230 !
  PARAMETER MQ(FCC_A1&Cr,CR,FE,NI:C;2) 298.15 +120000; 6.000E+3 N  REF230 !


$$$$$$$$$$$$$$$$ Mobility of Fe $$$$$$$$$$$$$$$$$$$$$$$$$$$$$$$$$

   PARAMETER MQ(FCC_A1&FE,*:*;0) 298.15 -287000-67.5*T; 6.00E+3 N !   

   PARAMETER MQ(FCC_A1&FE,AL:VA;0) 298.15 -168760+R*T*LN(4.795E-4);  
           6.00E+3 N REF260 !
   PARAMETER MQ(FCC_A1&FE,CO:VA;0) 298.15 -2.510E+5+R*T*LN(1.21E-05);  
           6.000E+3 N REF260 !
   PARAMETER MQ(FCC_A1&FE,CR:VA;0) 298.15 -235000-82.0*T; 6.00E+3 
	N REF230 !
   PARAMETER MQ(FCC_A1&FE,FE:VA;0) 298.15 -286000+R*T*LN(7.0E-5);  
        6.00E+3   REF230 !
   PARAMETER MQ(FCC_A1&FE,HF:VA;0) 298.15 -287000-67.5*T; 6.00E+3 N !
   PARAMETER MQ(FCC_A1&FE,MO:VA;0) 298.15 -287000-67.5*T; 6.00E+3 N !

   PARAMETER MQ(FCC_A1&FE,NB:VA;0) 298.15 -287000-67.5*T; 6.00E+3 N !
   PARAMETER MQ(FCC_A1&FE,NI:VA;0) 298.15 -287000-67.5*T; 6.00E+3 N !
   PARAMETER MQ(FCC_A1&FE,PD:VA;0) 298.15 -258375-91.37*T; 6.00E+3 N REF300 !
  PARAMETER MQ(FCC_A1&FE,PT:VA;0) 298.15 -262032-91.78*T; 6.00E+3 N REF300 ! 
   PARAMETER MQ(FCC_A1&FE,RE:VA;0) 298.15 -287000-67.5*T; 6.00E+3 N !
   PARAMETER MQ(FCC_A1&FE,TA:VA;0) 298.15 -287000-67.5*T; 6.00E+3 N !
   PARAMETER MQ(FCC_A1&FE,TI:VA;0) 298.15 -287000-67.5*T; 6.00E+3 N ! 
   PARAMETER MQ(FCC_Al&FE,W:VA;0) 298.15 -287000-67.5*T; 6.000E+3 N ! 

  PARAMETER MQ(FCC_A1&FE,AL:C;0) 298.15 -168760+R*T*LN(4.795E-4); 6.00E+3
          N REF260 !
   PARAMETER MQ(FCC_A1&FE,CO:C;0) 298.15 -2.510E+5+R*T*LN(1.21E-05); 6.00E+3
          N REF260 !
   PARAMETER MQ(FCC_A1&FE,CR:C;0) 298.15 -235000-82.0*T; 6.00E+3 N REF230 !
   PARAMETER MQ(FCC_A1&FE,FE:C;0) 298.15 -286000+R*T*LN(7.0E-5); 6.00E+3 N
          REF230 !
   PARAMETER MQ(FCC_A1&FE,HF:C;0) 298.15 -287000-67.5*T; 6.00E+3 N !
   PARAMETER MQ(FCC_A1&FE,MO:C;0) 298.15 -287000-67.5*T; 6.00E+3 N !
   PARAMETER MQ(FCC_A1&FE,NB:C;0) 298.15 -287000-67.5*T; 6.00E+3 N !
   PARAMETER MQ(FCC_A1&FE,NI:C;0) 298.15 -287000-67.5*T; 6.00E+3 N !
   PARAMETER MQ(FCC_A1&FE,RE:C;0) 298.15 -287000-67.5*T; 6.00E+3 N !
   PARAMETER MQ(FCC_A1&FE,TA:C;0) 298.15 -287000-67.5*T; 6.00E+3 N !
   PARAMETER MQ(FCC_A1&FE,TI:C;0) 298.15 -287000-67.5*T; 6.00E+3 N !
   PARAMETER MQ(FCC_Al&FE,W:C;0) 298.15 -287000-67.5*T; 6.000E+3 N !



$$  Fe-Al   $$

    PARAMETER MQ(FCC_A1&FE,AL,FE:VA;0) 298.15 +266220+5.11*T; 
	6.00E+3 N REF260 !
    PARAMETER MQ(FCC_A1&FE,AL,FE:C;0) 298.15 +266220+5.11*T;
        6.00E+3 N REF260 !


$$  Cr-Fe  $$
  
   PARAMETER MQ(FCC_A1&FE,CR,FE:VA;0) 298.15 15900; 6.000E+3 N REF230 !
   PARAMETER MQ(FCC_A1&FE,CR,FE:C;0) 298.15 15900; 6.000E+3 N REF230 !


$$  Cr-NI $$ 

   PARAMETER MQ(FCC_A1&FE,CR,NI:VA;0) 298.15 -77500; 6.000E+3 N REF230 ! 
   PARAMETER MQ(FCC_A1&FE,CR,NI:C;0) 298.15 -77500; 6.000E+3 N REF230 !

$$ CO-FE $$

   PARAMETER MQ(FCC_A1&FE,CO,FE:VA;0) 298.15 2.081E+5-104.7*T; 6.000E+3
         N REF260 !
   PARAMETER MQ(FCC_A1&FE,CO,FE:C;0) 298.15 2.081E+5-104.7*T; 6.000E+3
         N REF260 !

$$ Fe-NI  $$


    PARAMETER MQ(FCC_A1&FE,FE,NI:VA;0) 298.15 -115000+104*T; 6.00E+3 N REF230 !
    PARAMETER MQ(FCC_A1&FE,FE,NI:VA;1) 298.15 +78800-73.3*T; 6.00E+3 N REF230 !

    PARAMETER MQ(FCC_A1&FE,FE,NI:C;0) 298.15 -115000+104*T; 6.00E+3 N REF230 !
    PARAMETER MQ(FCC_A1&FE,FE,NI:C;1) 298.15 +78800-73.3*T; 6.00E+3 N REF230 !


$$ Cr-Fe-Ni $$

    PARAMETER MQ(FCC_A1&FE,Cr,FE,NI:VA;0) 298.15 -740000; 6.00E+3 N REF230 !
    PARAMETER MQ(FCC_A1&FE,CR,FE,NI:VA;1) 298.15 -540000; 6.00E+3 N REF230 ! 
    PARAMETER MQ(FCC_A1&FE,CR,FE,NI:VA;2) 298.15 +750000; 6.00E+3 N REF230 !

    PARAMETER MQ(FCC_A1&FE,Cr,FE,NI:C;0) 298.15 -740000; 6.00E+3 N REF230 !
    PARAMETER MQ(FCC_A1&FE,CR,FE,NI:C;1) 298.15 -540000; 6.00E+3 N REF230 !
    PARAMETER MQ(FCC_A1&FE,CR,FE,NI:C;2) 298.15 +750000; 6.00E+3 N REF230 !




$$$$$$$$$$$$$$$ Mobility of Hf $$$$$$$$$$$$$$$$$$$$$$$$$$$$$$$$

  PARAMETER MQ(FCc_A1&HF,*:*;0) 298.15 2.51956E+5+R*T*LN(1.91482E-4); 
	6.000E+3 N REF250 !

  PARAMETER MQ(FCC_A1&HF,AL:VA;0) 298.15 -145900+R*T*LN(4.4e-4);
	 6.000E+3 N ! 
  PARAMETER MQ(FCC_A1&HF,CO:VA;0) 298.15 -2.51956E+5+R*T*LN(1.91482E-4);
	 6.000E+3 N !
  PARAMETER MQ(FCC_A1&HF,CR:VA;0) 298.15 -2.51956E+5+R*T*LN(1.91482E-4);
	6.000E+3 N !
  PARAMETER MQ(FCC_A1&HF,FE:VA;0) 298.15  -2.51956E+5+R*T*LN(1.91482E-4);
        6.00E+3 N !
  PARAMETER MQ(FCC_A1&HF,HF:VA;0) 298.15 -2.35349E+5+R*T*LN(3.689E-7); 
       6.000E+3 N REF250 !
  PARAMETER MQ(FCC_A1&HF,NB:VA;0) 298.15 -2.51956E+5+R*T*LN(1.91482E-4);
	6.00E+3 N !
  PARAMETER MQ(FCC_A1&HF,MO:VA;0) 298.15 -2.51956E+5+R*T*LN(1.91482E-4);
	 6.000E+3 N !
  PARAMETER MQ(FCc_A1&HF,PT:VA;0) 298.15 2.51956E+5+R*T*LN(1.91482E-4); 
	6.000E+3 N REF250 !
  PARAMETER MQ(FCC_A1&HF,NI:VA;0) 298.15 -2.51956E+5+R*T*LN(1.91482E-4); 
	6.000E+3 N REF250 !
  PARAMETER MQ(FCC_A1&HF,RE:VA;0) 298.15 -2.51956E+5+R*T*LN(1.91482E-4);
	 6.000E+3 N !
  PARAMETER MQ(FCC_A1&HF,TA:VA;0) 298.15 -2.51956E+5+R*T*LN(1.91482E-4);
	 6.000E+3 N !
  PARAMETER MQ(FCC_A1&HF,TI:VA;0) 298.15 -2.51956E+5+R*T*LN(1.91482E-4); 
	6.000E+3 N !
  PARAMETER MQ(FCC_A1&HF,W:VA;0)  298.15 -2.51956E+5+R*T*LN(1.91482E-4); 
	6.000E+3 N !


  PARAMETER MQ(FCC_A1&HF,AL:C;0) 298.15 -145900+R*T*LN(4.4e-4);
         6.000E+3 N !
  PARAMETER MQ(FCC_A1&HF,CO:C;0) 298.15 -2.51956E+5+R*T*LN(1.91482E-4);
         6.000E+3 N !
  PARAMETER MQ(FCC_A1&HF,CR:C;0) 298.15 -2.51956E+5+R*T*LN(1.91482E-4);
        6.000E+3 N !
  PARAMETER MQ(FCC_A1&HF,FE:C;0) 298.15  -2.51956E+5+R*T*LN(1.91482E-4);
        6.00E+3 N !
  PARAMETER MQ(FCC_A1&HF,HF:C;0) 298.15 -2.35349E+5+R*T*LN(3.689E-7);
       6.000E+3 N REF250 !
  PARAMETER MQ(FCC_A1&HF,NB:C;0) 298.15 -2.51956E+5+R*T*LN(1.91482E-4);
        6.00E+3 N !
  PARAMETER MQ(FCC_A1&HF,MO:C;0) 298.15 -2.51956E+5+R*T*LN(1.91482E-4);
         6.000E+3 N !
  PARAMETER MQ(FCC_A1&HF,NI:C;0) 298.15 -2.51956E+5+R*T*LN(1.91482E-4);
        6.000E+3 N REF250 ! 
  PARAMETER MQ(FCC_A1&HF,RE:C;0) 298.15 -2.51956E+5+R*T*LN(1.91482E-4);
         6.000E+3 N !
  PARAMETER MQ(FCC_A1&HF,TA:C;0) 298.15 -2.51956E+5+R*T*LN(1.91482E-4);
         6.000E+3 N !
  PARAMETER MQ(FCC_A1&HF,TI:C;0) 298.15 -2.51956E+5+R*T*LN(1.91482E-4);
        6.000E+3 N !
  PARAMETER MQ(FCC_A1&HF,W:C;0)  298.15 -2.51956E+5+R*T*LN(1.91482E-4);
        6.000E+3 N !


$$$$$  Mobility of Mo $$$$$$$$$$$$$
 
  PARAMETER MQ(FCC_A1&MO,*:*;0) 298.15 -273593+R*T*LN(8.38e-5); 
	 6.000E+3 N REF 280 !

  PARAMETER MQ(FCC_A1&MO,AL:VA;0) 298.15 -273593+R*T*LN(8.38e-5);  
	6.000E+3 N !
  PARAMETER MQ(FCC_A1&MO,CO:VA;0) 298.15 -273593+R*T*LN(8.38e-5); 
	6.000E+3 N REF250!
  PARAMETER MQ(FCC_A1&MO,CR:VA;0) 298.15 -273593+R*T*LN(8.38e-5);
	 6.000E+3 N ! 
  PARAMETER MQ(FCC_A1&MO,HF:VA;0) 298.15 -273593+R*T*LN(8.38e-5); 
	6.000E+3 N !
  PARAMETER MQ(FCC_A1&MO,FE:VA;0) 298.15  -256943+R*T*LN(1.2061E-5);
        6.000E+3 N !
  PARAMETER MQ(FCC_A1&MO,MO:VA;0) 298.15 -224173+R*T*LN(4.05e-5);
	 6.000E+3 N REF280!
  PARAMETER MQ(FCC_A1&MO,NB:VA;0) 298.15 -273593+R*T*LN(8.38e-5);    
	6.00E+3 N !
  PARAMETER MQ(FCC_A1&MO,NI:VA;0) 298.15 -273593+R*T*LN(8.38e-5); 
	 6.000E+3 N REF 280 !
  PARAMETER MQ(FCC_A1&MO,PT:VA;0) 298.15 -273593+R*T*LN(8.38e-5); 
	 6.000E+3 N REF 280 !
  PARAMETER MQ(FCC_A1&MO,RE:VA;0) 298.15 -273593+R*T*LN(8.38e-5); 
	6.000E+3 N !
  PARAMETER MQ(FCC_A1&MO,TA:VA;0) 298.15 -273593+R*T*LN(8.38e-5); 
	6.000E+3 N !
  PARAMETER MQ(FCC_A1&MO,TI:VA;0) 298.15 -273593+R*T*LN(8.38e-5);
	 6.000E+3 N ! 
  PARAMETER MQ(FCC_A1&MO,W:VA;0)  298.15 -273593+R*T*LN(8.38e-5);
	6.000E+3 N !



  PARAMETER MQ(FCC_A1&MO,AL:C;0) 298.15 -273593+R*T*LN(8.38e-5);
        6.000E+3 N !
  PARAMETER MQ(FCC_A1&MO,CO:C;0) 298.15 -273593+R*T*LN(8.38e-5);
        6.000E+3 N REF250!
  PARAMETER MQ(FCC_A1&MO,CR:C;0) 298.15 -273593+R*T*LN(8.38e-5);
         6.000E+3 N !
  PARAMETER MQ(FCC_A1&MO,HF:C;0) 298.15 -273593+R*T*LN(8.38e-5);
        6.000E+3 N !
  PARAMETER MQ(FCC_A1&MO,FE:C;0) 298.15  -256943+R*T*LN(1.2061E-5);
        6.000E+3 N ! 
  PARAMETER MQ(FCC_A1&MO,MO:C;0) 298.15 -224173+R*T*LN(4.05e-5);
         6.000E+3 N REF280!
  PARAMETER MQ(FCC_A1&MO,NB:C;0) 298.15 -273593+R*T*LN(8.38e-5);
        6.00E+3 N !
  PARAMETER MQ(FCC_A1&MO,NI:C;0) 298.15 -273593+R*T*LN(8.38e-5);
         6.000E+3 N REF 280 !
  PARAMETER MQ(FCC_A1&MO,RE:C;0) 298.15 -273593+R*T*LN(8.38e-5);
        6.000E+3 N !
  PARAMETER MQ(FCC_A1&MO,TA:C;0) 298.15 -273593+R*T*LN(8.38e-5);
        6.000E+3 N !
  PARAMETER MQ(FCC_A1&MO,TI:C;0) 298.15 -273593+R*T*LN(8.38e-5);
         6.000E+3 N !
  PARAMETER MQ(FCC_A1&MO,W:C;0)  298.15 -273593+R*T*LN(8.38e-5);
        6.000E+3 N !


$$$$ Mo-Ni Interactions
PARAMETER MQ(FCC_A1&Mo,Ni,Mo:Va;0) 298.15 -364743; 6.000E+3 N 
	  REF 280 !
PARAMETER MQ(FCC_A1&Mo,Ni,Mo:C;0) 298.15 -364743; 6.000E+3 N 
	  REF 280 !

$$$$$  Mobility of Nb $$$$$$$$$$$$$
$$$ Co:VA parameter modified 7/14/03 based J-C Zhao data $$$$

  PARAMETER MQ(FCC_A1&NB,*:*;0) 298.15 -261250+R*T*LN(9.36e-5);
         6.000E+3 N REF 280!

  PARAMETER MQ(FCC_A1&NB,AL:VA;0) 298.15 -261250+R*T*LN(9.36e-5);
        6.000E+3 N !
  PARAMETER MQ(FCC_A1&NB,CO:VA;0) 298.15 -275333+R*T*LN(7.6071E-5);
        6.000E+3 N !
  PARAMETER MQ(FCC_A1&NB,CR:VA;0) 298.15 -261250+R*T*LN(9.36e-5);
         6.000E+3 N ! 
  PARAMETER MQ(FCC_A1&NB,HF:VA;0) 298.15 -261250+R*T*LN(9.36e-5);
        6.000E+3 N !
  PARAMETER MQ(FCC_A1&NB,FE:VA;0) 298.15 -275333+R*T*LN(7.6071E-5);
	6.00E+3 N !
  PARAMETER MQ(FCC_A1&NB,MO:VA;0) 298.15 -261250+R*T*LN(9.36e-5);
         6.000E+3 N !
  PARAMETER MQ(FCC_A1&NB,NB:VA;0) 298.15  -231570+R*T*LN(2.35e-5);
	6.000E+3 N REF 280!
  PARAMETER MQ(FCC_A1&NB,NI:VA;0) 298.15 -261250+R*T*LN(9.36e-5);
         6.000E+3 N REF 280!
  PARAMETER MQ(FCC_A1&NB,PT:VA;0) 298.15 -261250+R*T*LN(9.36e-5);
         6.000E+3 N REF 280!
  PARAMETER MQ(FCC_A1&NB,RE:VA;0) 298.15 -261250+R*T*LN(9.36e-5);
        6.000E+3 N !
  PARAMETER MQ(FCC_A1&NB,TA:VA;0) 298.15 -261250+R*T*LN(9.36e-5);
        6.000E+3 N ! 
  PARAMETER MQ(FCC_A1&NB,TI:VA;0) 298.15 -261250+R*T*LN(9.36e-5);
 
         6.000E+3 N !
  PARAMETER MQ(FCC_A1&NB,W:VA;0)  298.15 -261250+R*T*LN(9.36e-5);
 
        6.000E+3 N !


  PARAMETER MQ(FCC_A1&NB,AL:C;0) 298.15 -261250+R*T*LN(9.36e-5);
        6.000E+3 N !
  PARAMETER MQ(FCC_A1&NB,CO:C;0) 298.15 -275333+R*T*LN(7.6071E-5);
        6.000E+3 N !
  PARAMETER MQ(FCC_A1&NB,CR:C;0) 298.15 -261250+R*T*LN(9.36e-5);
         6.000E+3 N !
  PARAMETER MQ(FCC_A1&NB,HF:C;0) 298.15 -261250+R*T*LN(9.36e-5);     
   6.000E+3 N !
  PARAMETER MQ(FCC_A1&NB,FE:C;0) 298.15 -275333+R*T*LN(7.6071E-5);
        6.00E+3 N !
  PARAMETER MQ(FCC_A1&NB,MO:C;0) 298.15 -261250+R*T*LN(9.36e-5);
         6.000E+3 N !
  PARAMETER MQ(FCC_A1&NB,NB:C;0) 298.15  -231570+R*T*LN(2.35e-4);
        6.000E+3 N REF 280 !
  PARAMETER MQ(FCC_A1&NB,NI:C;0) 298.15 -261250+R*T*LN(9.36e-5);
         6.000E+3 N REF 280 !
  PARAMETER MQ(FCC_A1&NB,RE:C;0) 298.15 -261250+R*T*LN(9.36e-5);      
  6.000E+3 N !
  PARAMETER MQ(FCC_A1&NB,TA:C;0) 298.15 -261250+R*T*LN(9.36e-5);
        6.000E+3 N !
  PARAMETER MQ(FCC_A1&NB,TI:C;0) 298.15 -261250+R*T*LN(9.36e-5);
         6.000E+3 N !
  PARAMETER MQ(FCC_A1&NB,W:C;0)  298.15 -261250+R*T*LN(9.36e-5);
        6.000E+3 N !



$$$$$  Mobility of Ni $$$$$$$$$$$
  PARAMETER MQ(FCC_A1&NI,*:VA;0) 298.15 -287000-69.8*T; 6.00E+3 N !
  
  PARAMETER MQ(FCC_A1&Ni,AL:VA;0) 298.15 -145900+R*T*LN(4.4e-4); 6.00E+3 N  
	REF200!